100 2 100
11 83 2 17 12 5 9 87 85 75 27 6 68 22 91 23 4 51 14 42 83 9 74 3 98 50 96 56 55 11 39 57 80 3 14 89 90 99 65 18 58 85 92 1 60 96 53 75 90 36 84 90 62 88 40 12 36 40 68 43 4 60 84 15 66 26 6 18 91 76 76 28 68 77 88 16 82 15 59 18 52 49 80 40 42 45 28 82 65 23 38 77 75 23 93 41 49 51 11 92 
